% Teams number
Tn = 3;
% Stadions number
Sn = 3;
% Latitudes
TLatitude = [57.58072578059315, 57.59082766470863, 57.576255025157174];
SLatitude = [57.5897550313719, 57.58501718910107, 57.57580791940469];
% Longitudes
TLongitude = [39.86951696280019, 39.89753507886739, 39.91537995041019];
SLongitude = [39.87351955080979, 39.9087089703942, 39.88886280484659];
% Stadions pricelist
SPriceList = array3d(1..Sn, 1..2, 5..23, [500, 500, 500, 500, 500, 500, 500, 500, 500, 500, 500, 500, 500, 500, 500, 500, 500, 500, 500, 500, 500, 500, 500, 500, 500, 500, 500, 500, 500, 500, 500, 500, 500, 500, 500, 500, 500, 500, 1000, 1000, 1000, 1000, 1000, 1000, 1000, 1000, 1000, 1000, 1000, 1000, 1000, 1000, 1000, 1000, 1000, 1000, 1000, 1000, 1000, 1000, 1000, 1000, 1000, 1000, 1000, 1000, 1000, 1000, 1000, 1000, 1000, 1000, 1000, 1000, 1000, 1000, 50, 50, 50, 50, 50, 50, 50, 50, 50, 50, 50, 50, 50, 50, 50, 50, 50, 50, 50, 50, 50, 50, 50, 50, 50, 50, 50, 50, 50, 50, 50, 50, 50, 50, 50, 50, 50, 50]);